% Data file generated from RandomInstances/18_0.80_2.col DIMACS file
size = 18;

chi = 8;

adjacency = [|0,1,0,1,1,1,1,1,1,1,1,0,1,1,1,1,1,1,
|1,0,0,0,0,0,0,0,0,1,1,1,0,1,1,1,0,1,
|0,0,0,0,1,0,1,1,1,1,1,1,1,1,1,1,1,1,
|1,0,0,0,1,1,1,0,0,1,0,1,1,0,1,1,1,1,
|1,0,1,1,0,1,1,1,0,1,0,1,1,1,0,1,1,1,
|1,0,0,1,1,0,1,1,1,0,0,1,1,1,1,1,1,0,
|1,0,1,1,1,1,0,1,1,1,0,0,1,1,0,1,1,1,
|1,0,1,0,1,1,1,0,1,1,1,0,1,1,0,1,0,1,
|1,0,1,0,0,1,1,1,0,0,1,1,1,0,1,1,1,1,
|1,1,1,1,1,0,1,1,0,0,1,1,0,0,0,1,1,1,
|1,1,1,0,0,0,0,1,1,1,0,1,1,1,0,0,1,1,
|0,1,1,1,1,1,0,0,1,1,1,0,1,0,1,1,1,1,
|1,0,1,1,1,1,1,1,1,0,1,1,0,1,1,1,1,1,
|1,1,1,0,1,1,1,1,0,0,1,0,1,0,0,1,1,1,
|1,1,1,1,0,1,0,0,1,0,0,1,1,0,0,0,1,1,
|1,1,1,1,1,1,1,1,1,1,0,1,1,1,0,0,1,1,
|1,0,1,1,1,1,1,0,1,1,1,1,1,1,1,1,0,1,
|1,1,1,1,1,0,1,1,1,1,1,1,1,1,1,1,1,0,
|];